40
1 0 3
2 0 5
2 1 2
3 0 4
3 1 1
3 2 2
4 0 1
4 1 5
4 2 5
4 3 4
5 0 2
5 1 4
5 2 5
5 3 2
5 4 2
6 0 2
6 1 1
6 2 5
6 3 2
6 4 2
6 5 2
7 0 1
7 1 2
7 2 2
7 3 4
7 4 1
7 5 4
7 6 5
8 0 2
8 1 4
8 2 1
8 3 1
8 4 3
8 5 4
8 6 4
8 7 3
9 0 2
9 1 4
9 2 4
9 3 3
9 4 1
9 5 2
9 6 1
9 7 5
9 8 1
10 0 1
10 1 2
10 2 2
10 3 5
10 4 3
10 5 4
10 6 2
10 7 2
10 8 2
10 9 2
11 0 2
11 1 4
11 2 5
11 3 3
11 4 3
11 5 4
11 6 3
11 7 2
11 8 2
11 9 1
11 10 4
12 0 2
12 1 5
12 2 1
12 3 4
12 4 5
12 5 1
12 6 5
12 7 4
12 8 4
12 9 1
12 10 1
12 11 1
13 0 1
13 1 1
13 2 4
13 3 3
13 4 5
13 5 5
13 6 2
13 7 3
13 8 2
13 9 3
13 10 5
13 11 5
13 12 5
14 0 3
14 1 5
14 2 2
14 3 4
14 4 3
14 5 3
14 6 4
14 7 3
14 8 5
14 9 1
14 10 4
14 11 3
14 12 3
14 13 5
15 0 3
15 1 1
15 2 3
15 3 5
15 4 5
15 5 2
15 6 1
15 7 2
15 8 2
15 9 4
15 10 1
15 11 3
15 12 2
15 13 3
15 14 3
16 0 2
16 1 2
16 2 3
16 3 2
16 4 3
16 5 4
16 6 1
16 7 1
16 8 5
16 9 5
16 10 3
16 11 5
16 12 1
16 13 5
16 14 1
16 15 5
17 0 4
17 1 5
17 2 2
17 3 5
17 4 2
17 5 2
17 6 2
17 7 4
17 8 2
17 9 2
17 10 3
17 11 2
17 12 2
17 13 2
17 14 3
17 15 1
17 16 5
18 0 1
18 1 4
18 2 1
18 3 4
18 4 2
18 5 2
18 6 1
18 7 4
18 8 4
18 9 5
18 10 2
18 11 1
18 12 1
18 13 2
18 14 4
18 15 1
18 16 1
18 17 2
19 0 2
19 1 3
19 2 1
19 3 4
19 4 2
19 5 5
19 6 1
19 7 1
19 8 4
19 9 2
19 10 1
19 11 1
19 12 4
19 13 4
19 14 4
19 15 5
19 16 4
19 17 3
19 18 3
20 0 2
20 1 1
20 2 1
20 3 4
20 4 4
20 5 1
20 6 2
20 7 1
20 8 4
20 9 3
20 10 4
20 11 1
20 12 5
20 13 1
20 14 3
20 15 2
20 16 1
20 17 4
20 18 3
20 19 3
21 0 3
21 1 4
21 2 1
21 3 3
21 4 2
21 5 5
21 6 5
21 7 3
21 8 5
21 9 5
21 10 5
21 11 5
21 12 4
21 13 5
21 14 1
21 15 5
21 16 4
21 17 5
21 18 5
21 19 5
21 20 4
22 0 2
22 1 3
22 2 3
22 3 5
22 4 1
22 5 2
22 6 4
22 7 3
22 8 5
22 9 2
22 10 2
22 11 4
22 12 3
22 13 3
22 14 3
22 15 5
22 16 2
22 17 2
22 18 3
22 19 4
22 20 2
22 21 2
23 0 4
23 1 5
23 2 3
23 3 1
23 4 4
23 5 2
23 6 4
23 7 1
23 8 1
23 9 3
23 10 5
23 11 3
23 12 1
23 13 1
23 14 4
23 15 1
23 16 4
23 17 2
23 18 2
23 19 1
23 20 2
23 21 3
23 22 1
24 0 3
24 1 2
24 2 3
24 3 4
24 4 3
24 5 3
24 6 2
24 7 1
24 8 3
24 9 2
24 10 5
24 11 4
24 12 2
24 13 4
24 14 5
24 15 1
24 16 3
24 17 2
24 18 3
24 19 4
24 20 5
24 21 2
24 22 4
24 23 1
25 0 4
25 1 2
25 2 5
25 3 1
25 4 5
25 5 5
25 6 2
25 7 3
25 8 2
25 9 2
25 10 1
25 11 1
25 12 1
25 13 3
25 14 4
25 15 4
25 16 3
25 17 1
25 18 2
25 19 1
25 20 2
25 21 1
25 22 5
25 23 4
25 24 3
26 0 4
26 1 1
26 2 4
26 3 3
26 4 2
26 5 3
26 6 5
26 7 3
26 8 1
26 9 1
26 10 5
26 11 4
26 12 3
26 13 2
26 14 5
26 15 1
26 16 5
26 17 5
26 18 4
26 19 2
26 20 1
26 21 3
26 22 1
26 23 5
26 24 4
26 25 3
27 0 1
27 1 4
27 2 2
27 3 2
27 4 3
27 5 2
27 6 4
27 7 5
27 8 1
27 9 3
27 10 2
27 11 2
27 12 4
27 13 3
27 14 2
27 15 1
27 16 1
27 17 4
27 18 4
27 19 4
27 20 1
27 21 1
27 22 4
27 23 5
27 24 5
27 25 1
27 26 1
28 0 5
28 1 5
28 2 3
28 3 5
28 4 4
28 5 5
28 6 4
28 7 3
28 8 3
28 9 4
28 10 3
28 11 2
28 12 2
28 13 4
28 14 2
28 15 2
28 16 5
28 17 2
28 18 4
28 19 1
28 20 1
28 21 4
28 22 4
28 23 3
28 24 5
28 25 5
28 26 5
28 27 3
29 0 2
29 1 2
29 2 3
29 3 3
29 4 3
29 5 3
29 6 5
29 7 5
29 8 2
29 9 4
29 10 3
29 11 4
29 12 5
29 13 5
29 14 3
29 15 1
29 16 4
29 17 4
29 18 1
29 19 4
29 20 4
29 21 2
29 22 1
29 23 2
29 24 4
29 25 5
29 26 3
29 27 1
29 28 3
30 0 2
30 1 1
30 2 1
30 3 3
30 4 1
30 5 1
30 6 4
30 7 4
30 8 4
30 9 5
30 10 4
30 11 5
30 12 1
30 13 5
30 14 1
30 15 3
30 16 4
30 17 4
30 18 4
30 19 5
30 20 2
30 21 5
30 22 2
30 23 5
30 24 5
30 25 4
30 26 2
30 27 3
30 28 3
30 29 2
31 0 5
31 1 5
31 2 1
31 3 5
31 4 5
31 5 2
31 6 3
31 7 5
31 8 3
31 9 2
31 10 5
31 11 2
31 12 5
31 13 2
31 14 1
31 15 2
31 16 1
31 17 3
31 18 2
31 19 4
31 20 4
31 21 2
31 22 1
31 23 1
31 24 1
31 25 5
31 26 4
31 27 2
31 28 2
31 29 4
31 30 4
32 0 1
32 1 5
32 2 2
32 3 2
32 4 1
32 5 2
32 6 1
32 7 1
32 8 5
32 9 4
32 10 1
32 11 1
32 12 3
32 13 1
32 14 2
32 15 5
32 16 5
32 17 3
32 18 2
32 19 5
32 20 5
32 21 4
32 22 2
32 23 2
32 24 2
32 25 1
32 26 1
32 27 1
32 28 5
32 29 1
32 30 3
32 31 5
33 0 3
33 1 4
33 2 3
33 3 2
33 4 5
33 5 1
33 6 3
33 7 5
33 8 2
33 9 2
33 10 4
33 11 5
33 12 4
33 13 2
33 14 5
33 15 3
33 16 3
33 17 5
33 18 2
33 19 4
33 20 3
33 21 1
33 22 1
33 23 3
33 24 1
33 25 1
33 26 4
33 27 4
33 28 2
33 29 1
33 30 1
33 31 3
33 32 3
34 0 1
34 1 5
34 2 1
34 3 3
34 4 2
34 5 3
34 6 4
34 7 4
34 8 1
34 9 5
34 10 2
34 11 3
34 12 1
34 13 2
34 14 1
34 15 5
34 16 3
34 17 1
34 18 5
34 19 5
34 20 1
34 21 3
34 22 3
34 23 1
34 24 5
34 25 1
34 26 1
34 27 1
34 28 5
34 29 2
34 30 4
34 31 4
34 32 5
34 33 5
35 0 4
35 1 5
35 2 2
35 3 2
35 4 1
35 5 1
35 6 2
35 7 3
35 8 1
35 9 5
35 10 5
35 11 3
35 12 3
35 13 3
35 14 3
35 15 1
35 16 5
35 17 4
35 18 2
35 19 2
35 20 1
35 21 2
35 22 5
35 23 3
35 24 1
35 25 4
35 26 5
35 27 3
35 28 2
35 29 4
35 30 5
35 31 2
35 32 3
35 33 5
35 34 2
36 0 2
36 1 5
36 2 5
36 3 1
36 4 4
36 5 1
36 6 2
36 7 4
36 8 4
36 9 3
36 10 5
36 11 3
36 12 1
36 13 5
36 14 4
36 15 2
36 16 5
36 17 4
36 18 1
36 19 1
36 20 5
36 21 2
36 22 1
36 23 3
36 24 5
36 25 5
36 26 3
36 27 2
36 28 1
36 29 4
36 30 2
36 31 5
36 32 2
36 33 2
36 34 5
36 35 3
37 0 1
37 1 3
37 2 4
37 3 1
37 4 4
37 5 5
37 6 4
37 7 3
37 8 5
37 9 1
37 10 2
37 11 4
37 12 5
37 13 4
37 14 2
37 15 3
37 16 4
37 17 2
37 18 1
37 19 1
37 20 3
37 21 5
37 22 1
37 23 4
37 24 5
37 25 4
37 26 1
37 27 4
37 28 5
37 29 5
37 30 1
37 31 4
37 32 3
37 33 1
37 34 4
37 35 2
37 36 2
38 0 1
38 1 3
38 2 1
38 3 5
38 4 2
38 5 4
38 6 5
38 7 2
38 8 3
38 9 1
38 10 3
38 11 4
38 12 5
38 13 1
38 14 1
38 15 3
38 16 3
38 17 1
38 18 4
38 19 2
38 20 3
38 21 1
38 22 1
38 23 1
38 24 4
38 25 1
38 26 2
38 27 2
38 28 4
38 29 1
38 30 3
38 31 2
38 32 5
38 33 4
38 34 2
38 35 2
38 36 2
38 37 3
39 0 5
39 1 4
39 2 1
39 3 2
39 4 2
39 5 3
39 6 3
39 7 3
39 8 4
39 9 1
39 10 4
39 11 5
39 12 3
39 13 1
39 14 2
39 15 5
39 16 3
39 17 1
39 18 2
39 19 4
39 20 1
39 21 4
39 22 3
39 23 2
39 24 4
39 25 1
39 26 2
39 27 1
39 28 2
39 29 3
39 30 3
39 31 5
39 32 5
39 33 5
39 34 4
39 35 5
39 36 4
39 37 2
39 38 1
